NAME: instance_632
TYPE: TSP
DIMENSION: 20
EDGE_WEIGHT_TYPE: EUC_2D
NODE_COORD_SECTION
0 48.08 19.71
1 91.59 29.51
2 82.95 21.04
3 58.54 69.13
4 74.94 64.98
5 24.75 30.77
6 98.06 76.85
7 3.13 47.40
8 42.27 24.99
9 78.04 49.57
10 40.63 62.38
11 44.40 17.88
12 29.91 85.16
13 11.77 99.12
14 10.83 37.29
15 70.66 46.72
16 53.74 16.09
17 79.60 28.68
18 17.07 23.25
19 6.46 78.22
EOF
